n=588;
k_min=13;
k_max=13;
M=[| 73, 74, 72, 80, 69, 73, 82, 80, 80, 81, 79, 69, 81
 | 73, 74, 72, 80, 69, 73, 83, 80, 80, 81, 79, 69, 81
 | 72, 74, 72, 81, 69, 73, 83, 79, 80, 80, 79, 69, 81
 | 72, 74, 72, 81, 69, 73, 83, 79, 80, 80, 79, 69, 82
 | 72, 74, 72, 82, 69, 73, 83, 79, 79, 80, 79, 69, 81
 | 72, 74, 72, 82, 69, 73, 82, 79, 79, 80, 80, 69, 81
 | 72, 74, 72, 82, 69, 73, 83, 79, 79, 80, 80, 69, 81
 | 72, 74, 72, 83, 69, 73, 82, 79, 79, 80, 80, 69, 81
 | 72, 74, 72, 82, 69, 73, 82, 79, 79, 80, 81, 69, 82
 | 72, 74, 73, 82, 69, 73, 81, 78, 79, 80, 81, 69, 82
 | 72, 74, 73, 83, 69, 73, 81, 78, 79, 80, 82, 69, 81
 | 72, 74, 73, 82, 69, 73, 80, 78, 79, 80, 83, 69, 81
 | 72, 74, 73, 82, 70, 74, 80, 78, 79, 80, 82, 70, 81
 | 72, 74, 74, 81, 70, 74, 79, 78, 79, 80, 83, 70, 81
 | 72, 74, 74, 81, 70, 74, 79, 78, 79, 80, 83, 70, 80
 | 72, 75, 74, 80, 70, 74, 78, 79, 79, 80, 83, 70, 80
 | 73, 75, 74, 80, 70, 74, 78, 79, 79, 81, 82, 70, 80
 | 73, 75, 74, 79, 69, 74, 78, 79, 79, 81, 83, 69, 80
 | 73, 75, 72, 80, 70, 73, 83, 80, 80, 80, 78, 69, 81
 | 73, 74, 72, 80, 70, 73, 82, 80, 80, 80, 79, 69, 81
 | 73, 74, 72, 80, 70, 73, 83, 80, 80, 80, 79, 69, 81
 | 73, 74, 72, 81, 69, 73, 83, 79, 80, 80, 79, 69, 81
 | 73, 74, 72, 81, 69, 73, 83, 80, 80, 80, 79, 69, 81
 | 72, 74, 72, 81, 69, 73, 83, 79, 79, 80, 79, 69, 81
 | 72, 74, 72, 82, 70, 73, 83, 79, 79, 80, 79, 69, 81
 | 72, 74, 72, 82, 69, 73, 82, 79, 79, 80, 80, 69, 81
 | 72, 74, 72, 82, 69, 73, 83, 79, 79, 80, 80, 69, 81
 | 72, 74, 72, 83, 69, 73, 82, 78, 79, 80, 80, 69, 81
 | 72, 74, 72, 82, 69, 73, 82, 78, 79, 80, 81, 69, 81
 | 72, 74, 72, 83, 69, 73, 82, 78, 79, 80, 81, 69, 81
 | 72, 74, 73, 82, 69, 73, 81, 78, 79, 80, 81, 69, 81
 | 72, 74, 73, 83, 69, 73, 81, 78, 79, 80, 82, 69, 81
 | 72, 74, 73, 83, 69, 73, 81, 78, 79, 80, 82, 69, 81
 | 72, 74, 73, 83, 69, 73, 80, 78, 78, 80, 82, 69, 81
 | 72, 74, 73, 82, 70, 74, 80, 78, 78, 80, 83, 70, 81
 | 72, 74, 74, 82, 70, 74, 79, 78, 78, 80, 82, 70, 80
 | 72, 74, 73, 82, 69, 73, 80, 78, 79, 80, 83, 69, 81
 | 72, 74, 74, 81, 70, 74, 79, 78, 78, 80, 82, 70, 80
 | 72, 74, 74, 81, 70, 74, 79, 78, 78, 80, 83, 70, 80
 | 72, 75, 74, 81, 70, 74, 78, 78, 79, 80, 83, 70, 80
 | 73, 75, 74, 80, 70, 74, 78, 78, 79, 80, 82, 70, 80
 | 73, 75, 74, 79, 70, 75, 78, 78, 79, 80, 83, 70, 80
 | 73, 75, 74, 79, 70, 75, 77, 79, 79, 80, 82, 70, 80
 | 73, 75, 72, 80, 70, 73, 83, 80, 80, 80, 78, 69, 81
 | 73, 74, 72, 80, 70, 73, 83, 80, 80, 80, 79, 69, 81
 | 73, 74, 72, 80, 70, 73, 83, 80, 80, 80, 78, 69, 81
 | 73, 74, 72, 81, 70, 73, 83, 80, 80, 80, 79, 69, 81
 | 73, 74, 72, 81, 70, 73, 83, 79, 80, 80, 79, 69, 81
 | 73, 74, 72, 81, 70, 73, 83, 79, 79, 80, 79, 69, 81
 | 73, 74, 72, 81, 70, 73, 82, 79, 80, 80, 79, 69, 81
 | 73, 74, 72, 82, 70, 73, 82, 79, 79, 80, 79, 69, 81
 | 72, 74, 72, 82, 70, 73, 83, 79, 79, 80, 79, 69, 81
 | 72, 74, 72, 82, 70, 73, 83, 79, 79, 80, 80, 69, 81
 | 72, 74, 72, 82, 70, 73, 83, 79, 79, 80, 80, 69, 81
 | 72, 74, 72, 83, 70, 73, 82, 78, 79, 80, 80, 69, 81
 | 72, 74, 72, 83, 70, 73, 82, 78, 79, 80, 80, 69, 81
 | 72, 74, 72, 83, 70, 73, 82, 78, 79, 80, 80, 69, 81
 | 72, 74, 73, 82, 70, 73, 82, 78, 79, 80, 81, 69, 81
 | 72, 74, 73, 83, 69, 73, 82, 78, 79, 80, 81, 69, 81
 | 72, 74, 73, 83, 70, 73, 81, 78, 79, 80, 81, 69, 81
 | 72, 74, 73, 83, 70, 73, 81, 78, 78, 80, 82, 70, 81
 | 72, 74, 73, 82, 70, 73, 80, 78, 78, 79, 82, 70, 81
 | 72, 74, 73, 82, 70, 74, 80, 78, 78, 79, 83, 70, 81
 | 72, 74, 73, 82, 70, 73, 80, 78, 78, 80, 83, 70, 81
 | 72, 74, 73, 83, 70, 73, 81, 78, 78, 80, 82, 70, 81
 | 72, 74, 73, 83, 70, 73, 81, 78, 78, 80, 82, 69, 81
 | 72, 74, 73, 83, 70, 73, 80, 78, 78, 80, 82, 70, 81
 | 72, 74, 73, 83, 69, 73, 80, 78, 78, 80, 82, 69, 81
 | 72, 74, 74, 82, 70, 74, 80, 78, 78, 79, 83, 70, 80
 | 72, 74, 74, 82, 70, 74, 79, 78, 78, 79, 82, 70, 80
 | 72, 74, 74, 81, 70, 74, 79, 78, 78, 79, 82, 70, 80
 | 72, 74, 74, 81, 70, 74, 79, 78, 78, 79, 83, 70, 80
 | 73, 75, 74, 81, 70, 74, 78, 78, 78, 80, 83, 70, 80
 | 73, 75, 74, 80, 70, 75, 78, 78, 79, 80, 82, 70, 80
 | 73, 75, 74, 80, 70, 75, 78, 78, 79, 80, 83, 70, 80
 | 73, 75, 74, 79, 70, 75, 77, 78, 79, 80, 83, 70, 80
 | 73, 75, 74, 79, 70, 75, 77, 79, 79, 81, 82, 70, 80
 | 72, 74, 73, 83, 70, 73, 81, 78, 78, 80, 82, 70, 81
 | 72, 74, 73, 83, 70, 73, 81, 78, 78, 80, 81, 70, 81
 | 72, 74, 73, 82, 70, 73, 82, 78, 79, 80, 81, 70, 81
 | 72, 74, 73, 82, 70, 73, 82, 78, 79, 80, 81, 70, 81
 | 72, 74, 72, 83, 70, 73, 82, 78, 79, 80, 80, 70, 81
 | 72, 74, 72, 82, 70, 73, 82, 78, 79, 80, 80, 70, 81
 | 72, 74, 72, 82, 70, 73, 82, 79, 79, 80, 80, 70, 81
 | 72, 74, 73, 82, 69, 74, 80, 78, 79, 80, 82, 69, 81
 | 72, 74, 74, 82, 70, 74, 79, 78, 78, 80, 83, 70, 81
 | 72, 74, 74, 81, 70, 74, 79, 78, 78, 80, 83, 70, 80
 | 73, 74, 72, 82, 70, 73, 83, 79, 79, 80, 80, 69, 81
 | 73, 74, 72, 82, 70, 73, 83, 79, 79, 80, 79, 69, 81
 | 73, 74, 72, 82, 70, 73, 83, 79, 79, 80, 79, 69, 81
 | 73, 74, 72, 81, 70, 73, 82, 79, 79, 80, 79, 69, 81
 | 73, 74, 72, 81, 70, 73, 83, 79, 79, 80, 79, 69, 81
 | 73, 74, 72, 81, 70, 73, 83, 79, 79, 80, 79, 69, 81
 | 73, 74, 72, 81, 70, 73, 83, 79, 80, 80, 79, 69, 81
 | 73, 74, 72, 80, 70, 73, 83, 79, 80, 80, 78, 69, 81
 | 73, 75, 72, 80, 70, 74, 83, 80, 80, 80, 78, 69, 81
 | 73, 75, 72, 80, 70, 74, 83, 80, 80, 80, 78, 69, 81
 | 73, 75, 72, 80, 70, 73, 83, 80, 80, 80, 78, 69, 81
 | 72, 74, 73, 82, 70, 74, 80, 78, 78, 80, 83, 70, 81
 | 72, 74, 73, 82, 69, 74, 80, 78, 78, 80, 83, 69, 81
 | 72, 74, 74, 81, 70, 74, 79, 78, 79, 80, 82, 70, 81
 | 72, 74, 73, 82, 69, 74, 79, 78, 79, 80, 83, 69, 81
 | 72, 74, 73, 82, 69, 73, 81, 78, 79, 80, 82, 69, 81
 | 72, 74, 73, 82, 69, 73, 80, 78, 79, 80, 82, 69, 81
 | 72, 74, 74, 81, 70, 74, 79, 78, 79, 80, 83, 69, 80
 | 72, 75, 74, 80, 70, 74, 78, 79, 79, 80, 82, 69, 80
 | 73, 75, 75, 79, 70, 75, 77, 79, 79, 80, 82, 70, 79
 | 73, 75, 75, 79, 70, 75, 77, 78, 79, 80, 82, 70, 79
 | 72, 74, 72, 80, 69, 73, 81, 80, 80, 82, 80, 68, 83
 | 72, 74, 72, 81, 69, 73, 81, 80, 80, 81, 80, 68, 83
 | 72, 74, 72, 81, 69, 73, 81, 80, 80, 81, 80, 68, 83
 | 72, 74, 72, 81, 69, 73, 81, 79, 80, 81, 80, 68, 83
 | 72, 74, 72, 81, 69, 73, 81, 79, 80, 81, 81, 68, 83
 | 72, 74, 72, 81, 69, 73, 81, 79, 80, 81, 81, 68, 83
 | 72, 74, 72, 81, 69, 73, 81, 79, 80, 81, 81, 68, 82
 | 72, 74, 72, 80, 69, 73, 80, 80, 80, 82, 81, 68, 83
 | 72, 74, 72, 80, 68, 73, 80, 80, 81, 82, 80, 68, 83
 | 72, 74, 72, 80, 68, 73, 80, 80, 81, 82, 80, 68, 83
 | 72, 74, 72, 80, 69, 73, 81, 80, 80, 82, 80, 68, 83
 | 72, 74, 72, 80, 69, 73, 81, 80, 80, 82, 80, 68, 83
 | 72, 74, 72, 81, 69, 73, 81, 80, 80, 81, 80, 68, 83
 | 72, 74, 72, 80, 69, 73, 81, 80, 80, 82, 80, 68, 83
 | 72, 74, 72, 80, 69, 73, 81, 80, 80, 82, 80, 68, 83
 | 72, 74, 72, 80, 69, 73, 80, 80, 80, 82, 80, 68, 83
 | 72, 74, 72, 81, 69, 73, 81, 80, 80, 81, 80, 68, 83
 | 72, 74, 72, 81, 69, 73, 81, 79, 80, 81, 81, 68, 83
 | 72, 74, 72, 81, 69, 73, 81, 79, 80, 81, 81, 68, 83
 | 72, 74, 72, 80, 69, 73, 80, 80, 80, 82, 81, 68, 82
 | 72, 74, 72, 81, 69, 73, 80, 79, 80, 81, 81, 68, 82
 | 72, 74, 72, 81, 69, 73, 81, 79, 80, 81, 80, 68, 83
 | 72, 74, 72, 81, 69, 73, 81, 79, 80, 81, 81, 68, 83
 | 72, 74, 72, 81, 69, 73, 81, 79, 80, 81, 81, 68, 82
 | 72, 74, 72, 79, 69, 73, 80, 81, 81, 82, 80, 68, 82
 | 72, 74, 72, 79, 68, 73, 80, 81, 81, 82, 80, 68, 82
 | 72, 74, 72, 79, 68, 73, 80, 81, 81, 83, 80, 68, 82
 | 72, 75, 72, 79, 68, 74, 79, 81, 81, 82, 81, 68, 82
 | 73, 75, 72, 78, 69, 74, 78, 81, 82, 82, 81, 68, 81
 | 73, 75, 72, 77, 69, 74, 79, 82, 82, 82, 80, 68, 80
 | 73, 75, 72, 77, 69, 74, 79, 82, 83, 82, 79, 68, 80
 | 73, 75, 71, 78, 69, 74, 80, 82, 82, 82, 79, 68, 81
 | 73, 75, 72, 79, 69, 73, 80, 81, 82, 82, 79, 68, 82
 | 72, 75, 72, 79, 69, 73, 80, 81, 82, 82, 80, 68, 82
 | 72, 75, 72, 79, 68, 73, 80, 81, 81, 83, 80, 68, 82
 | 72, 75, 72, 79, 68, 73, 80, 81, 81, 83, 80, 68, 82
 | 72, 75, 72, 78, 68, 74, 79, 81, 82, 83, 80, 68, 81
 | 73, 75, 72, 78, 69, 73, 80, 81, 82, 82, 80, 68, 81
 | 73, 75, 72, 77, 69, 74, 79, 82, 82, 83, 80, 68, 81
 | 73, 75, 72, 78, 69, 74, 79, 82, 82, 83, 80, 68, 81
 | 73, 75, 72, 78, 69, 74, 79, 82, 82, 82, 80, 68, 81
 | 73, 75, 72, 77, 69, 74, 79, 82, 82, 83, 80, 68, 81
 | 73, 75, 72, 77, 69, 74, 79, 82, 82, 82, 80, 68, 81
 | 72, 75, 72, 78, 69, 74, 79, 81, 81, 83, 81, 68, 81
 | 72, 75, 72, 78, 68, 73, 80, 81, 82, 82, 80, 68, 82
 | 73, 75, 71, 78, 69, 74, 80, 82, 82, 83, 79, 68, 81
 | 73, 75, 71, 78, 69, 73, 80, 82, 82, 82, 79, 68, 81
 | 73, 75, 72, 78, 69, 74, 79, 81, 82, 83, 80, 68, 81
 | 72, 75, 72, 79, 69, 74, 79, 81, 81, 82, 81, 68, 81
 | 72, 75, 72, 79, 68, 73, 79, 81, 81, 83, 81, 68, 82
 | 72, 74, 72, 79, 68, 73, 80, 81, 81, 83, 80, 68, 82
 | 74, 76, 72, 76, 69, 74, 78, 82, 82, 82, 79, 69, 80
 | 74, 76, 72, 76, 69, 75, 78, 82, 82, 82, 79, 69, 80
 | 74, 76, 73, 76, 70, 75, 78, 82, 81, 81, 79, 69, 79
 | 74, 76, 72, 76, 69, 74, 79, 83, 82, 82, 79, 69, 80
 | 74, 76, 72, 76, 70, 75, 79, 83, 82, 81, 78, 69, 79
 | 75, 77, 72, 76, 70, 75, 79, 83, 81, 81, 78, 69, 79
 | 75, 77, 73, 75, 71, 76, 78, 83, 80, 80, 77, 70, 78
 | 76, 77, 73, 75, 71, 76, 77, 82, 80, 80, 78, 70, 78
 | 76, 78, 73, 74, 71, 76, 77, 83, 80, 80, 78, 70, 78
 | 76, 78, 74, 75, 71, 76, 76, 82, 80, 80, 78, 70, 78
 | 75, 77, 73, 75, 70, 76, 77, 82, 81, 81, 79, 69, 79
 | 74, 77, 73, 76, 70, 75, 78, 82, 81, 81, 79, 69, 79
 | 74, 76, 72, 76, 70, 75, 78, 83, 81, 81, 79, 69, 79
 | 74, 76, 72, 76, 70, 75, 78, 83, 81, 81, 78, 69, 79
 | 75, 77, 73, 75, 71, 75, 78, 83, 81, 80, 78, 70, 79
 | 75, 77, 73, 75, 71, 76, 78, 83, 81, 80, 78, 70, 78
 | 75, 77, 73, 75, 71, 76, 77, 83, 81, 80, 78, 70, 78
 | 75, 77, 73, 75, 70, 75, 78, 83, 81, 81, 78, 69, 79
 | 74, 76, 72, 76, 70, 75, 78, 83, 81, 81, 79, 69, 79
 | 74, 76, 72, 76, 70, 75, 79, 83, 82, 81, 79, 69, 79
 | 75, 77, 72, 76, 70, 75, 78, 82, 81, 81, 78, 69, 79
 | 75, 77, 73, 75, 70, 75, 78, 83, 81, 80, 78, 70, 79
 | 75, 77, 73, 75, 70, 75, 78, 83, 81, 81, 78, 69, 79
 | 74, 76, 72, 76, 70, 75, 78, 82, 82, 81, 79, 69, 79
 | 74, 76, 73, 76, 70, 75, 78, 82, 81, 81, 79, 69, 79
 | 75, 77, 73, 75, 70, 75, 77, 83, 81, 81, 79, 69, 79
 | 75, 77, 73, 75, 70, 76, 77, 83, 81, 80, 78, 70, 78
 | 74, 76, 72, 76, 70, 75, 78, 83, 82, 81, 79, 69, 79
 | 74, 76, 72, 76, 69, 74, 79, 83, 82, 82, 79, 69, 80
 | 74, 76, 72, 76, 69, 74, 79, 83, 82, 82, 79, 69, 80
 | 74, 76, 72, 76, 70, 75, 79, 83, 82, 81, 78, 69, 79
 | 74, 76, 72, 76, 70, 75, 79, 83, 81, 81, 78, 69, 79
 | 74, 76, 72, 76, 70, 75, 79, 83, 82, 81, 78, 69, 79
 | 74, 76, 72, 76, 70, 75, 79, 83, 81, 81, 78, 69, 79
 | 74, 76, 72, 76, 70, 75, 79, 82, 82, 81, 78, 69, 79
 | 74, 76, 72, 76, 70, 75, 79, 83, 82, 81, 78, 69, 79
 | 74, 76, 72, 76, 70, 75, 78, 82, 82, 81, 79, 69, 79
 | 74, 76, 72, 76, 70, 75, 79, 82, 81, 81, 78, 69, 79
 | 73, 76, 72, 76, 69, 74, 79, 83, 82, 82, 79, 68, 80
 | 73, 76, 72, 76, 69, 74, 79, 83, 82, 82, 79, 68, 80
 | 74, 77, 73, 76, 70, 75, 77, 82, 81, 81, 79, 69, 79
 | 75, 77, 73, 75, 71, 76, 77, 83, 80, 80, 78, 70, 78
 | 75, 77, 73, 75, 70, 76, 77, 83, 81, 80, 79, 69, 79
 | 75, 77, 73, 75, 71, 76, 77, 82, 80, 80, 78, 70, 78
 | 75, 77, 73, 75, 71, 76, 77, 83, 80, 80, 78, 70, 78
 | 75, 77, 73, 75, 71, 76, 78, 83, 80, 80, 78, 70, 78
 | 75, 77, 73, 75, 71, 76, 78, 83, 81, 80, 78, 70, 78
 | 75, 77, 73, 75, 71, 75, 78, 82, 81, 80, 78, 70, 78
 | 76, 77, 73, 75, 71, 76, 77, 82, 80, 80, 77, 70, 78
 | 75, 77, 73, 75, 71, 76, 77, 83, 81, 80, 78, 70, 78
 | 76, 78, 73, 75, 71, 76, 77, 83, 80, 80, 78, 70, 78
 | 76, 78, 73, 74, 71, 76, 77, 83, 80, 80, 78, 70, 78
 | 76, 78, 73, 75, 71, 76, 77, 83, 80, 80, 78, 70, 78
 | 75, 77, 73, 75, 71, 76, 77, 83, 80, 80, 78, 70, 78
 | 74, 76, 72, 76, 70, 75, 78, 83, 82, 81, 79, 69, 79
 | 74, 76, 72, 76, 70, 75, 78, 82, 81, 81, 79, 69, 79
 | 74, 77, 73, 76, 70, 75, 78, 83, 81, 81, 79, 69, 79
 | 75, 77, 73, 75, 70, 75, 77, 83, 81, 81, 78, 69, 79
 | 75, 77, 73, 75, 71, 76, 77, 83, 81, 80, 79, 70, 78
 | 75, 78, 73, 75, 71, 76, 77, 83, 80, 80, 78, 70, 78
 | 75, 77, 73, 75, 71, 76, 77, 83, 80, 80, 78, 70, 78
 | 75, 77, 73, 75, 71, 76, 78, 83, 81, 80, 78, 70, 78
 | 75, 77, 73, 75, 71, 76, 78, 83, 80, 80, 78, 70, 78
 | 74, 76, 72, 76, 70, 75, 78, 83, 82, 81, 78, 69, 79
 | 74, 76, 72, 76, 70, 75, 78, 83, 81, 81, 79, 69, 79
 | 75, 77, 73, 75, 70, 75, 77, 83, 81, 81, 78, 69, 79
 | 75, 77, 73, 75, 70, 75, 78, 83, 81, 81, 78, 70, 79
 | 75, 77, 73, 75, 71, 76, 78, 83, 81, 80, 78, 70, 78
 | 75, 77, 73, 75, 70, 75, 78, 83, 81, 80, 78, 70, 79
 | 75, 77, 72, 75, 70, 75, 78, 83, 81, 81, 78, 69, 79
 | 74, 76, 72, 76, 70, 75, 78, 82, 82, 81, 79, 69, 79
 | 74, 76, 72, 76, 69, 75, 78, 82, 82, 81, 79, 69, 80
 | 75, 76, 72, 76, 70, 75, 79, 83, 81, 81, 78, 69, 79
 | 82, 83, 78, 71, 77, 81, 72, 78, 75, 75, 74, 76, 73
 | 81, 83, 78, 71, 77, 81, 72, 78, 75, 75, 74, 76, 73
 | 81, 83, 78, 71, 77, 81, 72, 78, 75, 75, 74, 76, 73
 | 81, 82, 78, 71, 77, 81, 72, 78, 75, 75, 74, 76, 73
 | 81, 83, 78, 71, 77, 82, 72, 78, 75, 75, 74, 76, 73
 | 80, 83, 78, 71, 77, 82, 72, 78, 75, 75, 75, 76, 73
 | 81, 83, 78, 71, 77, 81, 72, 78, 75, 75, 74, 76, 73
 | 81, 83, 78, 71, 77, 81, 72, 78, 75, 75, 74, 76, 73
 | 81, 83, 78, 71, 77, 81, 72, 78, 75, 75, 74, 76, 73
 | 81, 82, 78, 71, 77, 81, 72, 78, 75, 75, 74, 76, 73
 | 81, 83, 78, 71, 77, 81, 72, 78, 75, 75, 75, 76, 73
 | 81, 83, 78, 71, 77, 81, 72, 78, 75, 75, 75, 75, 73
 | 80, 83, 78, 71, 76, 81, 72, 78, 75, 75, 75, 75, 73
 | 81, 83, 78, 71, 77, 82, 72, 78, 75, 75, 75, 76, 73
 | 81, 83, 78, 71, 77, 82, 72, 77, 75, 75, 74, 76, 73
 | 81, 82, 78, 70, 77, 82, 72, 77, 75, 75, 74, 76, 73
 | 82, 83, 78, 70, 77, 81, 72, 77, 75, 75, 74, 76, 73
 | 82, 83, 78, 70, 77, 81, 72, 77, 75, 75, 74, 76, 73
 | 81, 83, 77, 71, 77, 81, 72, 78, 75, 75, 74, 76, 73
 | 81, 82, 78, 71, 77, 81, 72, 78, 75, 75, 74, 75, 73
 | 81, 82, 78, 70, 77, 82, 72, 77, 75, 75, 74, 76, 73
 | 81, 82, 78, 71, 77, 81, 72, 78, 75, 75, 75, 75, 73
 | 81, 83, 78, 71, 77, 82, 72, 78, 75, 75, 74, 76, 73
 | 80, 83, 78, 71, 76, 81, 72, 78, 75, 75, 75, 76, 73
 | 80, 82, 79, 71, 77, 82, 72, 77, 75, 75, 75, 76, 73
 | 80, 83, 78, 71, 77, 82, 72, 78, 75, 75, 75, 76, 73
 | 81, 82, 77, 71, 77, 81, 72, 78, 75, 75, 74, 76, 73
 | 82, 83, 78, 71, 77, 81, 72, 77, 75, 75, 74, 76, 73
 | 81, 83, 78, 71, 77, 81, 72, 78, 75, 75, 74, 76, 73
 | 82, 83, 78, 71, 77, 81, 72, 77, 75, 75, 74, 76, 73
 | 82, 82, 78, 71, 78, 80, 72, 78, 75, 75, 74, 76, 73
 | 81, 83, 77, 71, 77, 81, 73, 78, 75, 75, 74, 76, 73
 | 83, 81, 78, 71, 79, 80, 73, 77, 75, 75, 74, 77, 73
 | 83, 81, 78, 71, 79, 80, 72, 77, 75, 74, 74, 77, 73
 | 83, 81, 78, 71, 79, 81, 72, 77, 75, 74, 74, 77, 73
 | 83, 81, 78, 71, 79, 81, 72, 77, 75, 74, 74, 77, 73
 | 82, 82, 78, 70, 79, 81, 72, 77, 75, 74, 74, 77, 73
 | 83, 82, 79, 70, 79, 81, 72, 77, 74, 74, 74, 77, 73
 | 83, 82, 79, 70, 79, 81, 72, 77, 74, 74, 74, 77, 73
 | 82, 82, 79, 70, 79, 82, 71, 77, 74, 74, 74, 77, 72
 | 82, 82, 79, 70, 79, 82, 71, 77, 74, 74, 74, 77, 72
 | 81, 82, 79, 70, 78, 82, 71, 77, 74, 74, 74, 77, 72
 | 81, 82, 80, 70, 78, 83, 71, 77, 74, 74, 74, 77, 73
 | 80, 81, 80, 71, 78, 83, 71, 77, 74, 74, 75, 77, 73
 | 79, 81, 80, 71, 78, 83, 71, 77, 75, 75, 75, 77, 73
 | 80, 81, 80, 71, 78, 82, 71, 77, 74, 74, 74, 77, 73
 | 81, 82, 79, 70, 78, 83, 71, 77, 74, 74, 74, 77, 73
 | 82, 82, 79, 70, 78, 82, 71, 77, 74, 74, 74, 77, 72
 | 82, 82, 79, 70, 79, 81, 71, 77, 74, 74, 74, 77, 73
 | 82, 82, 78, 70, 78, 81, 72, 77, 75, 74, 74, 77, 73
 | 82, 82, 78, 71, 78, 81, 72, 77, 75, 74, 74, 77, 73
 | 83, 81, 78, 71, 79, 81, 72, 77, 75, 74, 74, 77, 73
 | 83, 81, 78, 71, 78, 80, 72, 77, 75, 74, 74, 77, 73
 | 83, 81, 78, 71, 78, 80, 73, 77, 75, 75, 74, 77, 73
 | 83, 81, 78, 71, 79, 81, 72, 77, 75, 74, 74, 77, 73
 | 83, 81, 78, 71, 79, 81, 72, 77, 74, 74, 74, 77, 73
 | 83, 81, 78, 71, 79, 81, 72, 77, 74, 74, 74, 77, 73
 | 83, 81, 78, 70, 79, 81, 72, 77, 74, 74, 74, 77, 73
 | 83, 81, 79, 70, 79, 81, 72, 77, 74, 74, 73, 78, 73
 | 83, 81, 79, 70, 79, 81, 72, 77, 74, 74, 74, 78, 73
 | 82, 81, 79, 70, 79, 82, 71, 76, 74, 74, 74, 78, 72
 | 82, 82, 79, 70, 79, 81, 71, 77, 74, 74, 74, 78, 72
 | 82, 81, 79, 70, 79, 82, 71, 76, 74, 74, 74, 78, 72
 | 82, 81, 80, 70, 79, 82, 71, 76, 74, 74, 74, 78, 72
 | 81, 82, 80, 70, 79, 82, 71, 77, 74, 74, 74, 78, 72
 | 81, 82, 80, 70, 79, 83, 71, 76, 74, 74, 74, 78, 72
 | 81, 81, 80, 70, 79, 83, 71, 76, 74, 74, 74, 78, 72
 | 81, 81, 80, 70, 78, 83, 71, 77, 74, 74, 74, 78, 72
 | 80, 81, 80, 71, 78, 83, 71, 76, 74, 74, 74, 78, 73
 | 80, 81, 80, 71, 78, 83, 71, 77, 74, 74, 74, 78, 73
 | 79, 81, 80, 71, 78, 83, 71, 77, 74, 74, 75, 78, 73
 | 80, 81, 80, 71, 78, 83, 71, 77, 74, 74, 75, 77, 73
 | 81, 82, 79, 70, 78, 83, 71, 77, 74, 74, 74, 77, 72
 | 81, 81, 80, 70, 79, 83, 71, 76, 74, 74, 74, 78, 72
 | 83, 82, 79, 70, 79, 81, 72, 77, 74, 74, 74, 77, 73
 | 82, 82, 79, 70, 79, 82, 71, 77, 74, 74, 74, 78, 72
 | 81, 81, 80, 70, 79, 82, 71, 76, 74, 74, 74, 78, 72
 | 82, 82, 78, 71, 79, 81, 72, 77, 75, 74, 74, 77, 73
 | 83, 81, 78, 70, 79, 81, 72, 77, 74, 74, 74, 77, 73
 | 82, 82, 78, 70, 79, 81, 72, 77, 74, 74, 74, 77, 73
 | 83, 82, 79, 70, 79, 81, 72, 77, 74, 74, 74, 77, 73
 | 83, 81, 79, 70, 80, 82, 72, 76, 74, 74, 73, 78, 72
 | 83, 81, 79, 70, 80, 82, 71, 76, 74, 74, 73, 78, 72
 | 82, 81, 80, 70, 80, 82, 71, 76, 74, 73, 73, 79, 72
 | 83, 81, 80, 70, 80, 82, 71, 76, 74, 73, 73, 79, 72
 | 82, 81, 80, 70, 80, 83, 71, 76, 74, 73, 73, 79, 72
 | 82, 81, 80, 70, 80, 82, 71, 76, 74, 73, 73, 79, 72
 | 82, 81, 81, 70, 80, 83, 71, 76, 74, 73, 73, 79, 72
 | 82, 81, 80, 70, 80, 83, 71, 76, 74, 73, 73, 79, 72
 | 83, 80, 79, 70, 80, 82, 71, 76, 74, 74, 73, 79, 72
 | 83, 80, 79, 70, 80, 82, 71, 76, 74, 74, 73, 79, 72
 | 83, 81, 80, 70, 80, 82, 71, 76, 74, 73, 73, 79, 72
 | 83, 80, 80, 70, 81, 83, 71, 76, 74, 73, 73, 79, 72
 | 83, 80, 80, 70, 80, 83, 71, 76, 74, 73, 73, 79, 72
 | 82, 80, 80, 70, 80, 82, 71, 76, 74, 73, 73, 79, 72
 | 82, 80, 81, 70, 80, 83, 71, 76, 73, 73, 73, 79, 72
 | 82, 80, 81, 70, 80, 83, 71, 76, 74, 73, 73, 79, 72
 | 83, 81, 79, 70, 80, 82, 71, 76, 74, 74, 73, 79, 72
 | 83, 81, 79, 70, 80, 82, 71, 76, 74, 74, 73, 79, 72
 | 83, 81, 79, 70, 80, 82, 71, 76, 74, 74, 73, 79, 72
 | 83, 81, 79, 70, 80, 82, 71, 76, 74, 74, 73, 79, 72
 | 82, 80, 80, 70, 81, 82, 71, 76, 74, 73, 73, 79, 72
 | 82, 80, 81, 70, 80, 83, 71, 76, 74, 73, 73, 79, 72
 | 82, 81, 81, 70, 80, 83, 71, 76, 74, 73, 73, 79, 72
 | 82, 80, 81, 70, 80, 83, 71, 76, 74, 73, 73, 79, 72
 | 81, 80, 81, 70, 80, 83, 71, 76, 74, 73, 74, 79, 72
 | 81, 80, 81, 70, 80, 83, 70, 76, 73, 73, 73, 79, 72
 | 81, 80, 81, 70, 80, 83, 71, 76, 74, 74, 74, 79, 72
 | 81, 81, 81, 70, 80, 82, 71, 76, 74, 74, 74, 79, 72
 | 81, 80, 81, 70, 80, 82, 71, 76, 74, 74, 74, 79, 72
 | 82, 81, 80, 70, 80, 83, 71, 76, 74, 73, 73, 79, 72
 | 83, 80, 80, 70, 80, 83, 71, 76, 74, 73, 73, 79, 72
 | 83, 80, 80, 70, 80, 83, 71, 76, 74, 73, 73, 79, 72
 | 83, 81, 80, 70, 80, 82, 71, 76, 74, 73, 73, 79, 72
 | 81, 79, 81, 70, 82, 81, 71, 75, 73, 73, 73, 81, 72
 | 81, 79, 81, 70, 83, 81, 71, 75, 73, 73, 73, 81, 72
 | 81, 79, 81, 71, 83, 81, 71, 75, 73, 73, 73, 81, 72
 | 80, 79, 81, 71, 82, 80, 71, 75, 73, 73, 73, 81, 72
 | 80, 78, 81, 71, 83, 80, 71, 75, 73, 73, 73, 81, 72
 | 80, 78, 81, 71, 83, 80, 72, 75, 74, 73, 74, 81, 72
 | 80, 78, 81, 72, 83, 80, 72, 75, 74, 74, 74, 81, 73
 | 81, 79, 81, 70, 83, 81, 71, 75, 73, 73, 73, 81, 72
 | 81, 79, 81, 71, 83, 81, 71, 75, 73, 73, 73, 81, 72
 | 81, 79, 81, 71, 83, 81, 71, 75, 73, 73, 73, 81, 72
 | 81, 79, 81, 71, 83, 81, 71, 75, 73, 73, 73, 81, 72
 | 80, 78, 81, 71, 83, 80, 71, 75, 73, 73, 73, 81, 72
 | 80, 78, 81, 71, 83, 80, 71, 75, 73, 73, 73, 81, 72
 | 80, 78, 81, 71, 83, 80, 71, 75, 73, 73, 73, 81, 72
 | 80, 78, 81, 71, 83, 80, 71, 75, 73, 73, 73, 81, 72
 | 80, 78, 81, 71, 83, 80, 71, 75, 73, 73, 73, 81, 72
 | 80, 78, 81, 71, 83, 80, 72, 75, 74, 73, 73, 81, 72
 | 80, 78, 81, 71, 83, 80, 72, 75, 73, 73, 74, 81, 72
 | 80, 78, 81, 71, 83, 80, 72, 75, 74, 74, 74, 81, 73
 | 80, 78, 81, 71, 83, 80, 72, 75, 74, 74, 74, 81, 73
 | 80, 78, 81, 72, 83, 80, 72, 75, 74, 74, 74, 81, 73
 | 80, 79, 81, 71, 82, 80, 71, 75, 73, 73, 73, 82, 72
 | 80, 79, 81, 71, 83, 80, 71, 75, 73, 73, 73, 81, 72
 | 81, 79, 81, 70, 83, 81, 71, 75, 73, 73, 73, 81, 72
 | 81, 79, 81, 71, 83, 81, 71, 75, 73, 73, 73, 81, 72
 | 79, 78, 81, 72, 83, 79, 72, 75, 74, 74, 74, 81, 73
 | 79, 78, 81, 72, 83, 79, 72, 75, 74, 74, 74, 81, 73
 | 79, 78, 81, 72, 83, 79, 72, 75, 74, 74, 74, 81, 73
 | 80, 78, 81, 72, 83, 80, 72, 75, 74, 74, 74, 81, 73
 | 80, 78, 81, 71, 83, 80, 72, 75, 74, 73, 74, 81, 73
 | 79, 78, 81, 72, 83, 79, 72, 75, 74, 74, 74, 81, 73
 | 80, 78, 81, 71, 83, 80, 71, 75, 73, 73, 73, 81, 72
 | 81, 79, 81, 71, 83, 81, 71, 75, 73, 73, 73, 81, 72
 | 80, 78, 81, 71, 83, 80, 71, 75, 73, 73, 73, 82, 72
 | 80, 78, 81, 71, 83, 80, 71, 75, 73, 73, 73, 81, 72
 | 80, 78, 81, 71, 83, 80, 71, 75, 73, 73, 73, 81, 72
 | 80, 78, 81, 71, 83, 80, 72, 75, 74, 73, 74, 81, 72
 | 80, 78, 81, 71, 83, 80, 72, 75, 74, 73, 74, 81, 73
 | 80, 78, 81, 72, 83, 80, 72, 75, 74, 74, 74, 81, 73
 | 80, 78, 81, 71, 83, 80, 71, 75, 73, 73, 74, 81, 72
 | 81, 79, 80, 71, 82, 80, 72, 75, 74, 73, 73, 81, 72
 | 80, 79, 80, 71, 83, 80, 72, 75, 74, 73, 73, 81, 72
 | 80, 79, 80, 71, 83, 80, 72, 75, 74, 73, 73, 81, 72
 | 80, 79, 80, 71, 83, 80, 72, 75, 74, 73, 73, 81, 72
 | 80, 78, 81, 71, 83, 80, 72, 75, 74, 73, 73, 81, 72
 | 80, 78, 81, 71, 83, 80, 72, 75, 74, 73, 74, 81, 73
 | 80, 78, 81, 71, 83, 80, 72, 75, 74, 74, 74, 81, 73
 | 80, 78, 81, 71, 83, 80, 72, 75, 74, 73, 74, 81, 73
 | 80, 78, 80, 71, 83, 80, 72, 75, 74, 74, 74, 81, 73
 | 80, 78, 80, 72, 83, 80, 72, 75, 74, 74, 74, 80, 73
 | 80, 78, 80, 71, 83, 80, 72, 75, 74, 74, 74, 80, 73
 | 80, 79, 80, 71, 83, 80, 72, 75, 74, 73, 73, 81, 72
 | 80, 78, 80, 71, 83, 80, 72, 75, 74, 73, 73, 81, 72
 | 80, 78, 80, 71, 83, 80, 72, 75, 74, 74, 74, 81, 73
 | 80, 78, 80, 71, 83, 80, 72, 75, 74, 74, 74, 81, 73
 | 80, 78, 80, 71, 83, 80, 72, 75, 74, 74, 74, 80, 73
 | 80, 78, 80, 72, 83, 80, 72, 75, 74, 74, 74, 81, 73
 | 80, 78, 80, 72, 83, 80, 72, 75, 74, 74, 74, 81, 73
 | 80, 78, 80, 71, 83, 80, 72, 75, 74, 73, 73, 81, 73
 | 80, 78, 80, 71, 83, 80, 72, 75, 74, 73, 73, 80, 73
 | 81, 79, 81, 71, 82, 80, 71, 75, 74, 73, 73, 81, 72
 | 80, 79, 80, 71, 83, 80, 72, 75, 74, 73, 73, 81, 72
 | 80, 79, 81, 71, 83, 80, 72, 75, 74, 73, 73, 81, 72
 | 80, 78, 80, 71, 83, 80, 72, 75, 74, 74, 74, 81, 73
 | 80, 78, 80, 71, 83, 80, 72, 75, 74, 74, 74, 81, 73
 | 80, 78, 81, 71, 83, 80, 72, 75, 74, 74, 74, 81, 73
 | 80, 78, 80, 71, 83, 80, 72, 75, 74, 73, 74, 81, 73
 | 80, 78, 80, 71, 83, 80, 72, 75, 74, 73, 74, 81, 73
 | 80, 79, 82, 71, 82, 81, 71, 75, 73, 73, 73, 82, 72
 | 80, 78, 82, 71, 83, 80, 71, 75, 73, 73, 73, 82, 72
 | 80, 78, 82, 71, 83, 80, 71, 75, 73, 73, 74, 82, 72
 | 80, 78, 81, 71, 83, 80, 72, 75, 74, 73, 74, 81, 73
 | 80, 78, 81, 71, 83, 80, 71, 75, 73, 73, 74, 82, 72
 | 80, 78, 81, 71, 83, 80, 71, 75, 73, 73, 74, 82, 72
 | 80, 78, 82, 71, 83, 80, 71, 75, 73, 73, 73, 82, 72
 | 80, 78, 82, 71, 83, 80, 71, 75, 73, 73, 73, 82, 72
 | 80, 78, 82, 71, 83, 80, 71, 75, 73, 73, 73, 82, 72
 | 80, 78, 82, 71, 83, 80, 71, 75, 73, 73, 74, 82, 72
 | 80, 78, 81, 71, 83, 80, 72, 75, 74, 73, 74, 81, 72
 | 80, 78, 82, 71, 83, 80, 71, 75, 73, 73, 74, 82, 72
 | 80, 78, 82, 71, 83, 80, 71, 75, 73, 73, 73, 82, 72
 | 80, 78, 82, 71, 83, 80, 71, 75, 73, 73, 73, 82, 72
 | 80, 78, 82, 71, 83, 80, 71, 75, 73, 73, 73, 82, 72
 | 80, 78, 82, 71, 82, 80, 71, 75, 73, 73, 73, 82, 72
 | 80, 78, 82, 71, 83, 80, 71, 75, 73, 73, 73, 82, 72
 | 80, 78, 81, 71, 83, 80, 71, 75, 73, 73, 74, 82, 72
 | 80, 78, 81, 71, 83, 80, 71, 75, 73, 73, 74, 82, 72
 | 80, 78, 82, 71, 83, 80, 71, 75, 73, 73, 74, 82, 72
 | 80, 78, 82, 71, 83, 80, 71, 75, 73, 73, 73, 82, 72
 | 80, 78, 82, 71, 82, 80, 71, 75, 73, 73, 73, 82, 72
 | 80, 78, 81, 71, 83, 80, 71, 75, 73, 73, 74, 82, 72
 | 80, 78, 82, 71, 83, 80, 71, 75, 73, 73, 73, 82, 72
 | 80, 79, 82, 71, 81, 81, 71, 75, 73, 73, 74, 81, 72
 | 80, 79, 82, 71, 81, 81, 71, 75, 73, 73, 74, 81, 72
 | 80, 79, 82, 71, 81, 81, 71, 75, 73, 73, 74, 82, 72
 | 80, 79, 82, 71, 81, 81, 71, 75, 73, 73, 74, 81, 72
 | 80, 79, 82, 71, 80, 81, 71, 75, 73, 74, 74, 81, 72
 | 80, 79, 83, 71, 80, 81, 71, 75, 73, 74, 74, 81, 72
 | 79, 79, 83, 71, 80, 81, 71, 75, 74, 74, 74, 80, 72
 | 79, 79, 83, 71, 79, 81, 71, 76, 74, 74, 75, 80, 73
 | 79, 79, 83, 71, 80, 81, 71, 75, 74, 74, 74, 80, 72
 | 80, 79, 83, 71, 80, 81, 71, 75, 74, 74, 74, 80, 72
 | 80, 79, 83, 71, 80, 81, 71, 75, 73, 74, 74, 81, 72
 | 80, 79, 83, 71, 81, 81, 71, 75, 73, 73, 74, 81, 72
 | 80, 79, 82, 71, 81, 81, 71, 75, 73, 73, 74, 81, 72
 | 80, 79, 83, 71, 80, 81, 71, 75, 73, 74, 74, 81, 72
 | 79, 79, 83, 71, 80, 81, 71, 75, 74, 74, 74, 80, 72
 | 79, 79, 83, 72, 79, 81, 71, 76, 74, 74, 75, 80, 73
 | 79, 79, 83, 71, 80, 81, 71, 75, 74, 74, 74, 80, 72
 | 80, 79, 83, 71, 80, 81, 71, 75, 74, 74, 74, 81, 72
 | 80, 79, 83, 71, 80, 81, 71, 75, 73, 73, 74, 81, 72
 | 80, 79, 83, 71, 80, 81, 71, 75, 73, 73, 74, 81, 72
 | 79, 79, 83, 72, 79, 81, 71, 76, 74, 74, 75, 80, 73
 | 79, 79, 83, 72, 79, 81, 71, 76, 74, 74, 75, 79, 73
 | 79, 79, 83, 71, 79, 81, 71, 76, 74, 74, 75, 80, 73
 | 79, 79, 83, 71, 79, 81, 71, 76, 74, 74, 74, 80, 73
 | 80, 79, 83, 71, 80, 81, 71, 75, 74, 74, 74, 80, 72
 | 80, 79, 82, 71, 81, 81, 71, 75, 73, 73, 74, 81, 72
 | 79, 79, 83, 72, 79, 81, 71, 76, 74, 74, 75, 80, 73
 | 79, 79, 83, 71, 80, 81, 71, 75, 74, 74, 74, 80, 72
 | 80, 79, 83, 71, 80, 81, 71, 75, 73, 74, 74, 80, 72
 | 80, 79, 83, 71, 80, 81, 71, 75, 74, 74, 74, 81, 72
 | 80, 79, 82, 71, 79, 81, 71, 76, 74, 74, 74, 80, 72
 | 80, 79, 82, 71, 80, 81, 71, 75, 74, 74, 74, 80, 72
 | 80, 78, 83, 71, 82, 80, 71, 75, 73, 73, 73, 83, 72
 | 80, 78, 83, 71, 81, 80, 71, 75, 73, 73, 74, 82, 72
 | 80, 79, 82, 71, 81, 81, 71, 75, 73, 74, 74, 82, 72
 | 79, 79, 83, 71, 80, 80, 71, 75, 73, 74, 74, 81, 72
 | 79, 79, 83, 72, 80, 80, 71, 75, 74, 74, 74, 81, 73
 | 79, 79, 83, 72, 79, 80, 71, 75, 74, 74, 75, 80, 73
 | 78, 78, 83, 72, 79, 80, 71, 76, 74, 74, 75, 79, 73
 | 78, 78, 83, 73, 78, 80, 72, 76, 74, 75, 76, 79, 74
 | 78, 78, 83, 72, 78, 80, 71, 76, 74, 75, 75, 79, 73
 | 78, 78, 83, 72, 79, 80, 71, 76, 74, 74, 75, 79, 73
 | 79, 78, 83, 72, 79, 80, 71, 75, 74, 74, 75, 80, 73
 | 79, 79, 83, 72, 79, 80, 71, 75, 74, 74, 75, 80, 73
 | 79, 79, 83, 72, 80, 80, 71, 75, 74, 74, 74, 81, 73
 | 79, 79, 83, 71, 80, 80, 71, 75, 73, 74, 74, 81, 72
 | 80, 78, 83, 71, 81, 80, 71, 75, 73, 74, 74, 82, 72
 | 80, 78, 83, 71, 81, 80, 71, 75, 73, 73, 74, 82, 72
 | 80, 78, 83, 71, 82, 80, 71, 75, 73, 73, 74, 82, 72
 | 80, 78, 83, 71, 82, 80, 71, 75, 73, 73, 73, 83, 72
 | 80, 78, 83, 71, 81, 80, 71, 75, 73, 73, 74, 82, 72
 | 80, 78, 83, 71, 81, 80, 71, 75, 73, 73, 74, 82, 72
 | 79, 78, 83, 71, 81, 80, 71, 75, 73, 73, 74, 82, 72
 | 79, 78, 83, 71, 81, 80, 71, 75, 73, 74, 74, 81, 72
 | 79, 78, 83, 72, 80, 80, 71, 75, 74, 74, 74, 81, 73
 | 79, 78, 83, 71, 80, 80, 71, 75, 73, 74, 74, 81, 72
 | 79, 78, 83, 72, 80, 80, 71, 75, 74, 74, 74, 81, 73
 | 79, 78, 83, 72, 80, 80, 71, 75, 74, 74, 74, 81, 73
 | 79, 79, 83, 71, 80, 80, 71, 75, 74, 74, 74, 81, 72
 | 79, 78, 83, 72, 80, 80, 71, 75, 74, 74, 74, 81, 73
 | 79, 78, 83, 72, 80, 80, 71, 75, 74, 74, 74, 81, 73
 | 79, 78, 83, 72, 80, 80, 71, 75, 74, 74, 74, 81, 73
 | 79, 78, 83, 72, 80, 80, 71, 75, 74, 74, 74, 81, 73
 | 79, 78, 83, 72, 79, 80, 71, 75, 74, 74, 75, 80, 73
 | 79, 78, 83, 72, 79, 80, 71, 75, 74, 74, 75, 80, 73
 | 79, 78, 83, 72, 80, 80, 71, 75, 74, 74, 75, 81, 73
 | 79, 78, 83, 72, 79, 80, 71, 75, 74, 74, 75, 80, 73
 | 78, 78, 83, 72, 79, 80, 71, 76, 74, 74, 75, 80, 73
 | 78, 78, 83, 72, 78, 80, 72, 76, 74, 74, 75, 79, 73
 | 78, 78, 83, 73, 78, 80, 72, 76, 74, 75, 75, 79, 73
 | 78, 78, 83, 73, 78, 80, 72, 76, 74, 75, 76, 79, 74
 | 78, 78, 83, 73, 78, 80, 72, 76, 74, 75, 75, 79, 73
 | 78, 78, 82, 73, 78, 80, 72, 76, 74, 75, 75, 79, 74
 | 78, 78, 83, 73, 78, 80, 72, 76, 74, 75, 76, 79, 74
 | 78, 78, 82, 73, 77, 80, 72, 76, 74, 75, 76, 78, 74
 | 78, 78, 82, 73, 78, 80, 72, 76, 74, 75, 76, 78, 74
 | 78, 78, 83, 73, 78, 80, 72, 76, 74, 75, 75, 79, 73
 | 78, 78, 83, 72, 79, 80, 71, 76, 74, 74, 75, 80, 73
 | 79, 78, 83, 72, 79, 80, 71, 75, 74, 74, 75, 80, 73
 | 79, 78, 83, 72, 80, 80, 71, 75, 74, 74, 75, 80, 73
 | 79, 78, 83, 71, 80, 80, 71, 75, 74, 74, 74, 81, 72
 | 80, 78, 83, 71, 82, 80, 71, 75, 73, 73, 74, 83, 72
 | 80, 78, 83, 71, 81, 80, 71, 75, 73, 73, 74, 82, 72
 | 80, 78, 83, 71, 81, 80, 71, 75, 73, 73, 74, 82, 72
 | 80, 78, 83, 71, 81, 80, 71, 75, 73, 73, 74, 82, 72
 | 80, 78, 83, 71, 82, 80, 71, 75, 73, 73, 74, 83, 72
 | 79, 78, 83, 71, 81, 80, 71, 75, 73, 74, 74, 82, 72
 | 79, 78, 83, 72, 80, 80, 71, 75, 74, 74, 75, 81, 73
 | 79, 78, 83, 72, 79, 80, 71, 75, 74, 74, 75, 80, 73
 | 79, 78, 83, 72, 79, 80, 71, 75, 74, 74, 75, 80, 73
 | 79, 78, 83, 72, 79, 80, 71, 76, 74, 74, 75, 80, 73
 | 78, 78, 83, 73, 78, 80, 72, 76, 74, 75, 75, 79, 73
 | 78, 78, 83, 72, 78, 80, 71, 76, 74, 74, 75, 79, 73
 | 78, 78, 83, 73, 78, 80, 72, 76, 74, 75, 76, 78, 74
 | 78, 78, 82, 73, 78, 80, 72, 76, 74, 75, 76, 79, 74
 | 80, 78, 83, 71, 82, 80, 71, 75, 73, 73, 74, 83, 72
 | 80, 78, 83, 71, 82, 80, 71, 75, 73, 73, 74, 82, 72
 | 80, 78, 83, 71, 82, 80, 71, 75, 73, 73, 74, 83, 72
 | 80, 78, 83, 71, 82, 80, 71, 75, 73, 73, 74, 82, 72
 | 79, 78, 82, 71, 81, 80, 71, 75, 73, 73, 74, 82, 72
 | 79, 78, 83, 71, 81, 80, 71, 75, 73, 73, 74, 82, 72
 | 79, 78, 83, 71, 82, 80, 71, 75, 73, 73, 74, 82, 72
 | 79, 78, 82, 71, 81, 80, 71, 75, 73, 74, 74, 82, 72
 | 79, 78, 83, 72, 81, 80, 71, 75, 73, 74, 74, 82, 72
 | 79, 78, 83, 72, 81, 80, 71, 75, 74, 74, 74, 81, 73
 | 79, 78, 83, 72, 80, 80, 71, 75, 74, 74, 74, 81, 73
 | 79, 78, 82, 72, 80, 80, 71, 75, 74, 74, 75, 81, 73
 | 79, 78, 82, 72, 79, 80, 71, 75, 74, 74, 75, 80, 73
 | 78, 78, 83, 73, 79, 80, 72, 75, 74, 74, 75, 80, 73
 | 78, 78, 83, 72, 79, 80, 72, 75, 74, 74, 75, 80, 73
 | 79, 78, 82, 72, 80, 80, 71, 75, 74, 74, 75, 80, 73
 | 79, 78, 82, 72, 80, 80, 71, 75, 74, 74, 75, 81, 73
 | 79, 78, 83, 72, 80, 80, 71, 75, 74, 74, 74, 81, 73
 | 79, 78, 83, 72, 81, 80, 71, 75, 73, 74, 74, 82, 72
 | 79, 78, 83, 72, 80, 80, 71, 75, 74, 74, 74, 81, 73
 | 79, 78, 83, 72, 80, 80, 71, 75, 74, 74, 74, 81, 73
 | 79, 78, 83, 72, 80, 80, 71, 75, 74, 74, 74, 81, 73
 | 79, 78, 83, 72, 81, 80, 71, 75, 74, 74, 74, 81, 73
 | 79, 78, 83, 72, 81, 80, 71, 75, 74, 74, 74, 81, 73
 | 79, 78, 83, 72, 80, 80, 71, 75, 74, 74, 75, 81, 73
 | 79, 78, 83, 72, 80, 80, 71, 75, 74, 74, 74, 81, 73
 | 79, 78, 82, 72, 80, 80, 71, 75, 74, 74, 75, 81, 73
 | 78, 78, 82, 72, 79, 79, 72, 75, 74, 74, 75, 80, 73
 | 78, 78, 83, 73, 79, 79, 72, 75, 74, 74, 75, 80, 73
 | 78, 78, 83, 73, 79, 79, 72, 75, 74, 74, 75, 80, 73
 | 78, 78, 82, 72, 80, 80, 72, 75, 74, 74, 75, 80, 73
 | 79, 78, 83, 72, 80, 80, 71, 75, 74, 74, 75, 81, 73
 | 79, 78, 83, 72, 80, 80, 71, 75, 74, 74, 75, 81, 73
 | 79, 78, 83, 72, 80, 80, 71, 75, 74, 74, 74, 81, 73
 | 79, 78, 82, 72, 80, 80, 71, 75, 74, 74, 74, 81, 73
 | 78, 78, 82, 73, 79, 79, 72, 75, 74, 74, 75, 80, 73
 | 78, 78, 83, 73, 79, 79, 72, 76, 74, 75, 75, 79, 73
 | 78, 78, 83, 73, 79, 79, 72, 75, 74, 74, 75, 80, 73
 | 78, 78, 83, 73, 79, 79, 72, 75, 74, 74, 75, 80, 73
 | 78, 78, 82, 73, 79, 79, 72, 75, 74, 74, 75, 80, 73
 | 78, 78, 82, 73, 79, 79, 72, 75, 74, 74, 75, 80, 73
 | 78, 78, 83, 72, 80, 79, 72, 75, 74, 74, 75, 81, 73
 | 79, 78, 83, 72, 80, 80, 71, 75, 74, 74, 75, 81, 73
 | 79, 78, 83, 72, 80, 80, 71, 75, 74, 74, 74, 81, 73
 | 79, 78, 83, 72, 81, 80, 71, 75, 73, 74, 74, 82, 73
 | 79, 78, 83, 72, 81, 80, 71, 75, 74, 74, 74, 81, 73
 | 79, 78, 83, 72, 80, 80, 71, 75, 74, 74, 74, 81, 73
 | 79, 78, 83, 72, 80, 80, 71, 75, 74, 74, 74, 81, 73
 | 79, 78, 83, 72, 80, 79, 71, 75, 74, 74, 75, 81, 73
 | 79, 78, 83, 72, 80, 79, 72, 75, 74, 74, 75, 81, 73
 | 78, 78, 83, 72, 80, 79, 72, 75, 74, 74, 75, 81, 73
 | 78, 78, 83, 72, 80, 79, 72, 75, 74, 74, 75, 80, 73
 | 78, 78, 83, 72, 80, 79, 72, 75, 74, 74, 75, 81, 73
 | 79, 78, 83, 72, 80, 80, 71, 75, 74, 74, 74, 81, 73
 | 79, 78, 83, 72, 80, 80, 71, 75, 74, 74, 74, 81, 73 |];
 P=[7, 7, 7, 7, 7, 7, 7, 4, 4, 4, 4, 11, 11, 11, 11, 11, 11, 11, 7, 7, 7, 7, 7, 7, 7, 7, 7, 4, 4, 4, 4, 4, 4, 4, 11, 11, 11, 11, 11, 11, 11, 11, 11, 7, 7, 7, 7, 7, 7, 7, 7, 7, 7, 7, 4, 4, 4, 4, 4, 4, 4, 4, 11, 4, 4, 4, 4, 4, 11, 11, 11, 11, 11, 11, 11, 11, 11, 4, 4, 4, 4, 4, 7, 7, 11, 11, 11, 7, 7, 7, 7, 7, 7, 7, 7, 7, 7, 7, 11, 11, 11, 11, 4, 11, 11, 11, 11, 11, 13, 13, 13, 13, 13, 13, 13, 13, 13, 13, 13, 13, 13, 13, 13, 13, 13, 13, 13, 13, 13, 13, 13, 13, 10, 10, 10, 10, 10, 9, 9, 10, 10, 10, 10, 10, 10, 10, 10, 10, 10, 9, 9, 10, 10, 10, 10, 10, 10, 10, 10, 8, 8, 8, 8, 8, 8, 8, 8, 8, 8, 8, 8, 8, 8, 8, 8, 8, 8, 8, 8, 8, 8, 8, 8, 8, 8, 8, 8, 8, 8, 8, 8, 8, 8, 8, 8, 8, 8, 8, 8, 8, 8, 8, 8, 8, 8, 8, 8, 8, 8, 8, 8, 8, 8, 8, 8, 8, 8, 8, 8, 8, 8, 8, 8, 8, 8, 8, 8, 8, 8, 8, 8, 8, 2, 2, 2, 2, 2, 2, 2, 2, 2, 2, 2, 2, 2, 2, 2, 2, 2, 2, 2, 2, 2, 2, 2, 2, 2, 2, 2, 2, 2, 2, 2, 2, 1, 1, 1, 1, 1, 1, 1, 1, 6, 6, 6, 6, 6, 6, 6, 6, 2, 1, 1, 1, 1, 1, 1, 1, 1, 1, 1, 1, 1, 1, 6, 6, 6, 6, 6, 6, 6, 6, 6, 6, 6, 6, 1, 6, 6, 1, 1, 1, 1, 1, 1, 1, 1, 6, 6, 6, 6, 1, 1, 1, 1, 6, 6, 6, 6, 1, 1, 1, 1, 1, 6, 6, 6, 6, 6, 6, 6, 6, 6, 1, 6, 1, 5, 5, 5, 5, 5, 5, 5, 5, 5, 5, 5, 5, 5, 5, 5, 5, 5, 5, 5, 5, 5, 5, 5, 5, 5, 5, 5, 5, 5, 5, 5, 5, 5, 5, 5, 5, 5, 5, 5, 5, 5, 5, 5, 5, 5, 5, 5, 5, 5, 5, 5, 5, 5, 5, 5, 5, 5, 5, 5, 5, 5, 5, 5, 5, 5, 5, 5, 5, 5, 5, 5, 5, 5, 5, 5, 5, 5, 5, 5, 5, 5, 5, 5, 5, 5, 5, 5, 5, 5, 5, 5, 5, 3, 3, 3, 3, 3, 3, 3, 3, 3, 3, 3, 3, 3, 3, 3, 3, 3, 3, 3, 3, 3, 3, 3, 3, 3, 3, 3, 3, 3, 3, 3, 3, 12, 3, 3, 3, 3, 3, 3, 3, 3, 3, 3, 3, 3, 3, 3, 3, 3, 12, 3, 3, 3, 3, 3, 3, 3, 3, 3, 3, 3, 3, 3, 3, 3, 3, 3, 3, 3, 3, 3, 3, 3, 3, 3, 3, 3, 3, 3, 3, 3, 3, 3, 3, 3, 3, 3, 3, 3, 3, 3, 3, 3, 3, 3, 12, 3, 12, 3, 3, 3, 3, 3, 3, 3, 3, 3, 3, 3, 3, 3, 3, 3, 3, 3, 3, 3, 3, 3, 3, 3, 3, 3, 3, 3, 3, 3, 3, 3, 3, 3, 3, 3, 3, 3, 3, 3, 3, 3, 3, 3, 3, 3, 3, 3, 3, 3, 3, 3, 3 ];